(declare-const ent0 Bool)
(declare-const ent1 Bool)
(declare-const ent2 Bool)
(declare-const ent3 Bool)
(declare-const ent4 Bool)
(declare-const ent5 Bool)
(declare-const ent6 Bool)
(declare-const reac0 Bool)
(declare-const dir0 Bool)
(declare-const coef0 Int)
(declare-const reac1 Bool)
(declare-const dir1 Bool)
(declare-const coef1 Int)
(declare-const reac2 Bool)
(declare-const dir2 Bool)
(declare-const coef2 Int)
(declare-const reac3 Bool)
(declare-const dir3 Bool)
(declare-const coef3 Int)
(declare-const reac4 Bool)
(declare-const dir4 Bool)
(declare-const coef4 Int)
(assert (= dir0 (< coef0 0)))
(assert (= dir1 (< coef1 0)))
(assert (= dir2 (< coef2 0)))
(assert (= dir3 (< coef3 0)))
(assert (= dir4 (< coef4 0)))
(assert (=> reac0 (and(or ent0 ent6)(or ent2))))
(assert (=> reac1 (and(or ent2 ent1)(or ent3))))
(assert (=> reac2 (and(or ent0 ent4)(or ent3))))
(assert (=> reac3 (and(or ent4 ent1)(or ent5))))
(assert (=> reac4 (and(or ent6 ent6)(or ent5))))
(assert (=> ent0 (> (+ (ite reac0 (* -1 coef0) 0) (ite reac2 (* -1 coef2) 0) 0) 0)))
(assert (=> ent1 (> (+ (ite reac1 (* -1 coef1) 0) (ite reac3 (* -1 coef3) 0) 0) 0)))
(assert (=> ent2 (> (+ (ite reac0 (* 1 coef0) 0) (ite reac1 (* -1 coef1) 0) 0) 0)))
(assert (=> ent3 (> (+ (ite reac1 (* 1 coef1) 0) (ite reac2 (* 1 coef2) 0) 0) 0)))
(assert (=> ent4 (> (+ (ite reac2 (* -1 coef2) 0) (ite reac3 (* -1 coef3) 0) 0) 0)))
(assert (=> ent5 (> (+ (ite reac3 (* 1 coef3) 0) (ite reac4 (* 1 coef4) 0) 0) 0)))
(assert (=> ent6 (> (+ (ite reac0 (* -1 coef0) 0) (ite reac4 (* -2 coef4) 0) 0) 0)))
(assert ((_ at-most 5) ent0 ent1 ent2 ent3 ent4 ent5 ent6))
(assert ((_ at-least 5) ent0 ent1 ent2 ent3 ent4 ent5 ent6))
(assert ((_ at-least 5) reac0 reac1 reac2 reac3 reac4))
(assert ((_ at-most 5) reac0 reac1 reac2 reac3 reac4))
(assert (not (and reac0 (not dir0) reac1 (not dir1) reac2 dir2 reac3 (not dir3) reac4 dir4 ent2 ent3 ent4 ent5 ent6)))
(check-sat)
(get-model)
